62
Time limit set to 60 seconds
Running CP solver
/home/omastto1/General-Optimization-Solver/src/solvers/mmrcpsp.py:42(stream:108:6): Warning: Cumulative expression 'pulse': height is zero, expression is zero everywhere.
                                                                                               VarCumulAtom_149 = pulse(task_0_mode_0, 0)
/home/omastto1/General-Optimization-Solver/src/solvers/mmrcpsp.py:42(stream:108:1255): Warning: Cumulative expression 'pulse': height is zero, expression is zero everywhere.
                                                                                                  VarCumulAtom_198 = pulse(task_17_mode_0, 0)
/home/omastto1/General-Optimization-Solver/src/solvers/mmrcpsp.py:42(stream:109:6): Warning: Cumulative expression 'pulse': height is zero, expression is zero everywhere.
                                                                                               VarCumulAtom_202 = pulse(task_0_mode_0, 0)
/home/omastto1/General-Optimization-Solver/src/solvers/mmrcpsp.py:42(stream:109:1257): Warning: Cumulative expression 'pulse': height is zero, expression is zero everywhere.
                                                                                                  VarCumulAtom_251 = pulse(task_17_mode_0, 0)
 ! --------------------------------------------------- CP Optimizer 20.1.0.0 --
 ! Minimization problem - 69 variables, 51 constraints
 ! TimeLimit            = 60
 ! Workers              = 14
 ! LogVerbosity         = Terse
 ! Initial process time : 0.00s (0.00s extraction + 0.00s propagation)
 !  . Log search space  : 159.8 (before), 159.8 (after)
 !  . Memory usage      : 754.6 kB (before), 754.6 kB (after)
 ! Using parallel search with 14 workers.
 ! ----------------------------------------------------------------------------
 !          Best Branches  Non-fixed    W       Branch decision
                        0         69                 -
 + New bound is 31
 ! Using iterative diving.
 ! Using temporal relaxation.
 *            31       12  0.10s        1      (gap is 0.00%)
 ! ----------------------------------------------------------------------------
 ! Search completed, 1 solution found.
 ! Best objective         : 31 (optimal - effective tol. is 0)
 ! Best bound             : 31
 ! ----------------------------------------------------------------------------
 ! Number of branches     : 51843
 ! Number of fails        : 1466
 ! Total memory usage     : 9.0 MB (8.9 MB CP Optimizer + 0.1 MB Concert)
 ! Time spent in solve    : 0.13s (0.13s engine + 0.00s extraction)
 ! Search speed (br. / s) : 432025.0
 ! ----------------------------------------------------------------------------
task_0: (start=0, end=0, size=0, length=0)
Task 0 is scheduled in mode 0 from 0 to 0
task_1: (start=0, end=4, size=4, length=4)
Task 1 is scheduled in mode 0 from 0 to 4
task_2: (start=0, end=4, size=4, length=4)
Task 2 is scheduled in mode 0 from 0 to 4
task_3: (start=0, end=6, size=6, length=6)
Task 3 is scheduled in mode 1 from 0 to 6
task_4: (start=4, end=9, size=5, length=5)
Task 4 is scheduled in mode 0 from 4 to 9
task_5: (start=9, end=10, size=1, length=1)
Task 5 is scheduled in mode 0 from 9 to 10
task_6: (start=6, end=11, size=5, length=5)
Task 6 is scheduled in mode 0 from 6 to 11
task_7: (start=11, end=13, size=2, length=2)
Task 7 is scheduled in mode 1 from 11 to 13
task_8: (start=13, end=15, size=2, length=2)
Task 8 is scheduled in mode 1 from 13 to 15
task_9: (start=10, end=16, size=6, length=6)
Task 9 is scheduled in mode 2 from 10 to 16
task_10: (start=10, end=11, size=1, length=1)
Task 10 is scheduled in mode 0 from 10 to 11
task_11: (start=11, end=13, size=2, length=2)
Task 11 is scheduled in mode 0 from 11 to 13
task_12: (start=13, end=23, size=10, length=10)
Task 12 is scheduled in mode 1 from 13 to 23
task_13: (start=15, end=21, size=6, length=6)
Task 13 is scheduled in mode 1 from 15 to 21
task_14: (start=23, end=31, size=8, length=8)
Task 14 is scheduled in mode 1 from 23 to 31
task_15: (start=16, end=24, size=8, length=8)
Task 15 is scheduled in mode 2 from 16 to 24
task_16: (start=23, end=31, size=8, length=8)
Task 16 is scheduled in mode 1 from 23 to 31
task_17: (start=31, end=31, size=0, length=0)
Task 17 is scheduled in mode 0 from 31 to 31
Optimal solution found
Objective value: 31
Solution is optimal.
